p cnf 13 49
-1 3 -6 0
1 -9 11 0
2 -9 13 0
-6 -9 -10 0
3 -8 9 0
-6 -10 12 0
3 4 10 0
-1 -3 -10 0
2 -6 13 0
-2 3 6 0
5 -6 -7 0
-1 4 13 0
1 -5 -12 0
-7 -9 10 0
4 -10 -13 0
-7 -10 -12 0
1 -2 -10 0
2 6 10 0
-1 4 12 0
-3 -9 11 0
2 12 -13 0
6 -11 13 0
-5 -6 -13 0
-1 -6 -7 0
2 8 -10 0
1 2 -8 0
11 12 13 0
-1 -4 -10 0
6 9 13 0
1 -3 5 0
-3 -7 -10 0
-7 -12 13 0
-5 -12 13 0
-3 6 13 0
2 -4 13 0
-1 -7 -13 0
-3 4 10 0
-1 -4 -7 0
-1 2 -11 0
1 2 9 0
-1 4 -12 0
2 3 13 0
1 -8 10 0
-5 -6 -12 0
-3 7 8 0
1 -2 10 0
-3 5 -6 0
6 11 13 0
2 4 13 0
